7
2147483647 2 75 74 11 37 97 
2 2147483647 53 8 1 23 71 
75 53 2147483647 11 29 49 66 
74 8 11 2147483647 40 65 97 
11 1 29 40 2147483647 22 40 
37 23 49 65 22 2147483647 56 
97 71 66 97 40 56 2147483647 
